(set-logic ALL)
(declare-fun seed0_xI () Real)
(declare-fun seed0_A () Real)
(declare-fun seed0_B () Real)
(declare-fun seed0_ts82uscore0 () Real)
(declare-fun seed0_I1 () Real)
(declare-fun seed0_xuscore4dollarskuscore18 () Real)
(declare-fun seed0_v () Real)
(declare-fun seed0_t149uscore0dollarskuscore0 () Real)
(declare-fun seed0_V () Real)
(declare-fun seed0_I1uscore4dollarskuscore23 () Real)
(declare-fun seed0_ep () Real)
(declare-fun seed0_vuscore4dollarskuscore23 () Real)
(declare-fun seed0_x () Real)
(assert (and (forall ((seed0_Q1_ts82uscore0 Real)) (and (and (and (and (and (and (and (and (and (and (and (and (and (and (or (or (not (<= 0 seed0_Q1_ts82uscore0)) (not (<= seed0_Q1_ts82uscore0 seed0_t149uscore0dollarskuscore0))) (and (and (>= (+ (* (- seed0_B) seed0_Q1_ts82uscore0) seed0_vuscore4dollarskuscore23) 0) (<= (+ (* (- seed0_B) seed0_Q1_ts82uscore0) seed0_vuscore4dollarskuscore23) seed0_V)) (<= seed0_Q1_ts82uscore0 seed0_ep))) (>= seed0_t149uscore0dollarskuscore0 0)) (= seed0_I1uscore4dollarskuscore23 0)) (>= seed0_vuscore4dollarskuscore23 0)) (<= seed0_vuscore4dollarskuscore23 seed0_V)) (< seed0_xI seed0_xuscore4dollarskuscore18)) (= seed0_I1 2)) (> seed0_xI (+ seed0_x (/ (* seed0_v seed0_v) (* 2 seed0_B))))) (> seed0_B 0)) (>= seed0_v 0)) (<= seed0_v seed0_V)) (>= seed0_A 0)) (> seed0_V 0)) (> seed0_ep 0)) (not (>= (+ (* (- seed0_B) seed0_t149uscore0dollarskuscore0) seed0_vuscore4dollarskuscore23) 0)))) (xor (< (- seed0_t149uscore0dollarskuscore0 seed0_V) (+ seed0_A seed0_x)) (distinct (- seed0_B seed0_I1uscore4dollarskuscore23) (+ seed0_v seed0_V)))))
(check-sat)
(exit)